(declare-datatype list (par (a) ((Nil) (Cons (Cons_0 a) (Cons_1 (list a))))))
(declare-fun less (par (a) (a a) Bool))
(declare-fun append (par (a) ((list a) (list a)) (list a)))
(assert (par (a) (forall ((ys (list a))) (= (append a (Nil a) ys) ys))))
(assert (par (a) (forall ((x a) (xs (list a)) (ys (list a))) (= (append a (Cons a x xs) ys) (Cons a x (append a xs ys))))))
(declare-fun sorted_s (par (a) ((list a)) Bool))
(assert (par (a) (sorted_s a (Nil a))))
(assert (par (a) (forall ((x a)) (sorted_s a (Cons a x (Nil a))))))
(assert (par (a) (forall ((x a) (y a) (zs (list a))) (= (sorted_s a (Cons a x (Cons a y zs))) (and (less a x y) (sorted_s a (Cons a y zs)))))))
(declare-fun ins_list (par (a) (a (list a)) (list a)))
(assert (par (a) (forall ((x a)) (= (ins_list a x (Nil a)) (Cons a x (Nil a))))))
(assert (par (a) (forall ((x a) (y a) (xs (list a))) (= (ins_list a x (Cons a y xs))
  (ite (less a x y) (Cons a x (Cons a y xs)) (ite (= x y) (Cons a y xs) (Cons a y (ins_list a x xs))))))))

; sorted(xs @ [a]) -> ins_list(x,xs @ a # ys) = if x < a then ins_list(x,xs) @ a # ys else xs @ ins_list(x,a # ys)
(assert-not (par (a) (forall ((xs (list a)) (x a) (y a) (ys (list a))) (=> (sorted_s a (append a xs (Cons a y (Nil a)))) (= (ins_list a x (append a xs (Cons a y ys))) (ite (less a x y) (append a (ins_list a x xs) (Cons a y ys)) (append a xs (ins_list a x (Cons a y ys)))))))))
